
Gurobi 5.6.0 (linux64) logging started Sat Mar  1 12:16:22 2014


Gurobi 5.6.0 (linux64) logging started Sat Mar  1 12:18:09 2014


Gurobi 5.6.0 (linux64) logging started Sat Mar  1 12:21:00 2014


Gurobi 5.6.0 (linux64) logging started Sat Mar  1 12:23:24 2014


Gurobi 5.6.0 (linux64) logging started Sat Mar  1 12:24:21 2014


Gurobi 5.6.0 (linux64) logging started Sat Mar  1 12:25:27 2014


Gurobi 5.6.0 (linux64) logging started Sat Mar  1 12:26:53 2014


Gurobi 5.6.0 (linux64) logging started Sat Mar  1 12:27:48 2014


Gurobi 5.6.0 (linux64) logging started Sat Mar  1 12:32:57 2014


Gurobi 5.6.0 (linux64) logging started Sat Mar  1 12:34:13 2014


Gurobi 5.6.0 (linux64) logging started Sat Mar  1 12:35:00 2014


Gurobi 5.6.0 (linux64) logging started Sat Mar  1 12:35:34 2014


Gurobi 5.6.0 (linux64) logging started Sat Mar  1 19:55:36 2014


Gurobi 5.6.0 (linux64) logging started Sat Mar  1 19:56:18 2014


Gurobi 5.6.0 (linux64) logging started Sat Mar  1 19:56:35 2014


Gurobi 5.6.0 (linux64) logging started Sat Mar  1 20:04:31 2014

